100
1000
200
200
199
199
199
199
198
197
196
196
195
195
194
194
193
191
191
190
189
189
188
187
187
186
185
185
184
184
184
184
184
183
182
181
181
181
180
180
179
179
178
176
175
175
174
174
174
174
174
173
172
172
172
171
170
170
170
170
169
169
168
167
167
167
167
167
165
165
164
164
163
163
163
162
162
160
160
159
159
158
158
157
157
157
157
156
156
156
155
155
154
153
153
153
152
152
151
151
150
150
